words_hard_train/2986.qaiger
aag 114 23 0 1 91
2
4
12
14
18
22
26
30
34
48
56
64
70
90
106
120
140
156
166
174
188
198
214
228
6 2 5
8 3 4
10 7 9
16 13 15
20 16 19
24 20 23
28 24 27
32 28 31
36 32 35
38 11 37
40 10 36
42 39 41
44 33 34
46 45 37
50 46 49
52 21 22
54 53 25
58 55 56
60 54 57
62 17 18
66 65 15
68 66 12
72 69 70
74 12 14
76 75 17
78 77 64
80 73 79
82 62 81
84 83 21
86 17 19
88 86 80
92 89 90
94 84 93
96 61 95
98 59 97
100 25 26
102 101 29
104 98 102
108 105 106
110 99 103
112 109 111
114 29 30
116 115 33
118 113 117
122 119 121
124 112 116
126 123 125
128 51 126
130 47 48
132 129 131
134 42 133
136 43 132
138 135 137
142 46 141
144 47 140
146 143 145
148 147 127
150 146 126
152 149 151
154 125 119
158 155 156
160 154 157
162 159 161
164 84 89
168 165 167
170 164 166
172 169 171
176 54 175
178 55 174
180 177 179
182 181 95
184 180 94
186 183 185
190 189 13
192 188 12
194 191 193
196 67 79
200 197 198
202 196 199
204 201 203
206 194 205
208 187 206
210 172 208
212 111 105
216 213 214
218 212 215
220 217 219
222 210 221
224 163 222
226 152 224
228 139 226
i0 2 y1[7]
i1 2 y2[7]
i2 2 y1[0]
i3 2 y1[1]
i4 2 y1[2]
i5 2 y1[3]
i6 2 y1[4]
i7 2 y1[5]
i8 2 y1[6]
i9 1 x2[6]
i10 1 x2[3]
i11 1 x2[0]
i12 1 x2[1]
i13 1 x2[2]
i14 1 x2[4]
i15 1 x2[5]
i16 2 y2[6]
i17 2 y2[5]
i18 2 y2[2]
i19 2 y2[3]
i20 2 y2[0]
i21 2 y2[1]
i22 2 y2[4]
o0 bool[0]
c
simplified
  ==
    2 y2
    xor
      1 x2
      subtract
        invert
          1 x2
        2 y1
