words_hard_train/2986.qaiger.qdimacs
p cnf 114 274
a 32 35 45 60 53 24 28 0
e 1 2 3 4 5 6 7 8 9 10 11 12 13 14 15 16 17 18 19 20 21 22 23 25 26 27 29 30 31 33 34 36 37 38 39 40 41 42 43 44 46 47 48 49 50 51 52 54 55 56 57 58 59 61 62 63 64 65 66 67 68 69 70 71 72 73 74 75 76 77 78 79 80 81 82 83 84 85 86 87 88 89 90 91 92 93 94 95 96 97 98 99 100 101 102 103 104 105 106 107 108 109 110 111 112 113 114 0
-1 2 3 0
1 -3 0
-2 -3 0
1 -2 4 0
-1 -4 0
2 -4 0
3 4 5 0
-3 -5 0
-4 -5 0
6 7 8 0
-6 -8 0
-7 -8 0
-8 9 10 0
8 -10 0
-9 -10 0
-10 11 12 0
10 -12 0
-11 -12 0
-12 13 14 0
12 -14 0
-13 -14 0
-14 15 16 0
14 -16 0
-15 -16 0
-16 17 18 0
16 -18 0
-17 -18 0
5 18 19 0
-5 -19 0
-18 -19 0
-5 -18 20 0
5 -20 0
18 -20 0
19 20 21 0
-19 -21 0
-20 -21 0
16 -17 22 0
-16 -22 0
17 -22 0
22 18 23 0
-22 -23 0
-18 -23 0
-23 24 25 0
23 -25 0
-24 -25 0
10 -11 26 0
-10 -26 0
11 -26 0
26 12 27 0
-26 -27 0
-12 -27 0
27 -28 29 0
-27 -29 0
28 -29 0
-27 28 30 0
27 -30 0
-28 -30 0
8 -9 31 0
-8 -31 0
9 -31 0
32 7 33 0
-32 -33 0
-7 -33 0
-33 -6 34 0
33 -34 0
6 -34 0
34 -35 36 0
-34 -36 0
35 -36 0
-6 -7 37 0
6 -37 0
7 -37 0
37 8 38 0
-37 -38 0
-8 -38 0
38 -32 39 0
-38 -39 0
32 -39 0
36 39 40 0
-36 -40 0
-39 -40 0
-31 40 41 0
31 -41 0
-40 -41 0
41 10 42 0
-41 -42 0
-10 -42 0
8 9 43 0
-8 -43 0
-9 -43 0
-43 -40 44 0
43 -44 0
40 -44 0
44 -45 46 0
-44 -46 0
45 -46 0
-42 46 47 0
42 -47 0
-46 -47 0
30 47 48 0
-30 -48 0
-47 -48 0
29 48 49 0
-29 -49 0
-48 -49 0
12 -13 50 0
-12 -50 0
13 -50 0
50 14 51 0
-50 -51 0
-14 -51 0
-49 -51 52 0
49 -52 0
51 -52 0
52 -53 54 0
-52 -54 0
53 -54 0
49 51 55 0
-49 -55 0
-51 -55 0
54 55 56 0
-54 -56 0
-55 -56 0
14 -15 57 0
-14 -57 0
15 -57 0
57 16 58 0
-57 -58 0
-16 -58 0
56 58 59 0
-56 -59 0
-58 -59 0
59 60 61 0
-59 -61 0
-60 -61 0
-56 -58 62 0
56 -62 0
58 -62 0
61 62 63 0
-61 -63 0
-62 -63 0
25 -63 64 0
-25 -64 0
63 -64 0
23 -24 65 0
-23 -65 0
24 -65 0
64 65 66 0
-64 -66 0
-65 -66 0
-21 66 67 0
21 -67 0
-66 -67 0
21 -66 68 0
-21 -68 0
66 -68 0
67 68 69 0
-67 -69 0
-68 -69 0
-23 70 71 0
23 -71 0
-70 -71 0
23 -70 72 0
-23 -72 0
70 -72 0
71 72 73 0
-71 -73 0
-72 -73 0
73 63 74 0
-73 -74 0
-63 -74 0
-73 -63 75 0
73 -75 0
63 -75 0
74 75 76 0
-74 -76 0
-75 -76 0
62 59 77 0
-62 -77 0
-59 -77 0
77 -78 79 0
-77 -79 0
78 -79 0
-77 78 80 0
77 -80 0
-78 -80 0
79 80 81 0
-79 -81 0
-80 -81 0
-42 44 82 0
42 -82 0
-44 -82 0
82 83 84 0
-82 -84 0
-83 -84 0
-82 -83 85 0
82 -85 0
83 -85 0
84 85 86 0
-84 -86 0
-85 -86 0
-27 87 88 0
27 -88 0
-87 -88 0
27 -87 89 0
-27 -89 0
87 -89 0
88 89 90 0
-88 -90 0
-89 -90 0
90 47 91 0
-90 -91 0
-47 -91 0
-90 -47 92 0
90 -92 0
47 -92 0
91 92 93 0
-91 -93 0
-92 -93 0
94 6 95 0
-94 -95 0
-6 -95 0
-94 -6 96 0
94 -96 0
6 -96 0
95 96 97 0
-95 -97 0
-96 -97 0
33 39 98 0
-33 -98 0
-39 -98 0
98 -99 100 0
-98 -100 0
99 -100 0
-98 99 101 0
98 -101 0
-99 -101 0
100 101 102 0
-100 -102 0
-101 -102 0
-97 102 103 0
97 -103 0
-102 -103 0
93 -103 104 0
-93 -104 0
103 -104 0
-86 -104 105 0
86 -105 0
104 -105 0
55 52 106 0
-55 -106 0
-52 -106 0
106 -107 108 0
-106 -108 0
107 -108 0
-106 107 109 0
106 -109 0
-107 -109 0
108 109 110 0
-108 -110 0
-109 -110 0
-105 110 111 0
105 -111 0
-110 -111 0
81 -111 112 0
-81 -112 0
111 -112 0
-76 -112 113 0
76 -113 0
112 -113 0
69 -113 114 0
-69 -114 0
113 -114 0
114 0
